Minimize
[ err1 ^ 2 + err2 ^ 2 + err3 ^ 2 + err4 ^ 2 + err5 ^ 2 + err6 ^ 2 + err7 ^ 2 + err8 ^ 2 + err9 ^ 2 + err10 ^ 2 + err11 ^ 2 + err12 ^ 2 + err13 ^ 2 + err14 ^ 2 + err15 ^ 2 + err16 ^ 2 + err17 ^ 2 + err18 ^ 2 + err19 ^ 2 + err20 ^ 2 + err21 ^ 2 + err22 ^ 2 + err23 ^ 2 + err24 ^ 2 + err25 ^ 2 + err26 ^ 2 + err27 ^ 2 + err28 ^ 2 + err29 ^ 2 + err30 ^ 2 + err31 ^ 2 + err32 ^ 2 + err33 ^ 2 + err34 ^ 2 + err35 ^ 2 + err36 ^ 2 + err37 ^ 2 + err38 ^ 2 + err39 ^ 2 + err40 ^ 2 + err41 ^ 2 + err42 ^ 2 + err43 ^ 2 + err44 ^ 2 + err45 ^ 2 + err46 ^ 2 + err47 ^ 2 + err48 ^ 2 + err49 ^ 2 + err50 ^ 2 + err51 ^ 2 + err52 ^ 2 + err53 ^ 2 + err54 ^ 2 + err55 ^ 2 + err56 ^ 2 + err57 ^ 2 + err58 ^ 2 + err59 ^ 2 + err60 ^ 2 + err61 ^ 2 + err62 ^ 2 + err63 ^ 2 + err64 ^ 2 + err65 ^ 2 + err66 ^ 2 + err67 ^ 2 + err68 ^ 2 + err69 ^ 2 + err70 ^ 2 + err71 ^ 2 + err72 ^ 2 + err73 ^ 2 + err74 ^ 2 + err75 ^ 2 + err76 ^ 2 + err77 ^ 2 + err78 ^ 2 + err79 ^ 2 + err80 ^ 2 + err81 ^ 2 + err82 ^ 2 + err83 ^ 2 + err84 ^ 2 + err85 ^ 2 + err86 ^ 2 + err87 ^ 2 + err88 ^ 2 + err89 ^ 2 + err90 ^ 2 + err91 ^ 2 + err92 ^ 2 + err93 ^ 2 + err94 ^ 2 + err95 ^ 2 + err96 ^ 2 + err97 ^ 2 + err98 ^ 2 + err99 ^ 2 + err100 ^ 2 + err101 ^ 2 + err102 ^ 2 + err103 ^ 2 + err104 ^ 2 + err105 ^ 2 + err106 ^ 2 + err107 ^ 2 + err108 ^ 2 + err109 ^ 2 + err110 ^ 2 + err111 ^ 2 ]

Subject To
25.0 layer_2 + 5.0 layer_1 + layer_c + 16000000.0 particle_2 + 4000.0 particle_1 + particle_c + 20000.0 particle_layer  + err1 = 1598.5
16.0 layer_2 + 4.0 layer_1 + layer_c + 16000000.0 particle_2 + 4000.0 particle_1 + particle_c + 16000.0 particle_layer  + err2 = 1264.6
9.0 layer_2 + 3.0 layer_1 + layer_c + 16000000.0 particle_2 + 4000.0 particle_1 + particle_c + 12000.0 particle_layer  + err3 = 978.9
4.0 layer_2 + 2.0 layer_1 + layer_c + 16000000.0 particle_2 + 4000.0 particle_1 + particle_c + 8000.0 particle_layer  + err4 = 698.3
1.0 layer_2 + 1.0 layer_1 + layer_c + 16000000.0 particle_2 + 4000.0 particle_1 + particle_c + 4000.0 particle_layer  + err5 = 408.4
25.0 layer_2 + 5.0 layer_1 + layer_c + 15210000.0 particle_2 + 3900.0 particle_1 + particle_c + 19500.0 particle_layer  + err6 = 1502.1
16.0 layer_2 + 4.0 layer_1 + layer_c + 15210000.0 particle_2 + 3900.0 particle_1 + particle_c + 15600.0 particle_layer  + err7 = 1230.4
9.0 layer_2 + 3.0 layer_1 + layer_c + 15210000.0 particle_2 + 3900.0 particle_1 + particle_c + 11700.0 particle_layer  + err8 = 956.3
4.0 layer_2 + 2.0 layer_1 + layer_c + 15210000.0 particle_2 + 3900.0 particle_1 + particle_c + 7800.0 particle_layer  + err9 = 682.5
25.0 layer_2 + 5.0 layer_1 + layer_c + 14440000.0 particle_2 + 3800.0 particle_1 + particle_c + 19000.0 particle_layer  + err10 = 1471.6
16.0 layer_2 + 4.0 layer_1 + layer_c + 14440000.0 particle_2 + 3800.0 particle_1 + particle_c + 15200.0 particle_layer  + err11 = 1203.4
9.0 layer_2 + 3.0 layer_1 + layer_c + 14440000.0 particle_2 + 3800.0 particle_1 + particle_c + 11400.0 particle_layer  + err12 = 936.3
4.0 layer_2 + 2.0 layer_1 + layer_c + 14440000.0 particle_2 + 3800.0 particle_1 + particle_c + 7600.0 particle_layer  + err13 = 668.4
25.0 layer_2 + 5.0 layer_1 + layer_c + 13690000.0 particle_2 + 3700.0 particle_1 + particle_c + 18500.0 particle_layer  + err14 = 1435.0
16.0 layer_2 + 4.0 layer_1 + layer_c + 13690000.0 particle_2 + 3700.0 particle_1 + particle_c + 14800.0 particle_layer  + err15 = 1176.9
9.0 layer_2 + 3.0 layer_1 + layer_c + 13690000.0 particle_2 + 3700.0 particle_1 + particle_c + 11100.0 particle_layer  + err16 = 912.8
4.0 layer_2 + 2.0 layer_1 + layer_c + 13690000.0 particle_2 + 3700.0 particle_1 + particle_c + 7400.0 particle_layer  + err17 = 654.0
25.0 layer_2 + 5.0 layer_1 + layer_c + 12960000.0 particle_2 + 3600.0 particle_1 + particle_c + 18000.0 particle_layer  + err18 = 1400.9
16.0 layer_2 + 4.0 layer_1 + layer_c + 12960000.0 particle_2 + 3600.0 particle_1 + particle_c + 14400.0 particle_layer  + err19 = 1146.1
9.0 layer_2 + 3.0 layer_1 + layer_c + 12960000.0 particle_2 + 3600.0 particle_1 + particle_c + 10800.0 particle_layer  + err20 = 889.9
4.0 layer_2 + 2.0 layer_1 + layer_c + 12960000.0 particle_2 + 3600.0 particle_1 + particle_c + 7200.0 particle_layer  + err21 = 639.9
25.0 layer_2 + 5.0 layer_1 + layer_c + 12250000.0 particle_2 + 3500.0 particle_1 + particle_c + 17500.0 particle_layer  + err22 = 1363.5
16.0 layer_2 + 4.0 layer_1 + layer_c + 12250000.0 particle_2 + 3500.0 particle_1 + particle_c + 14000.0 particle_layer  + err23 = 1115.2
9.0 layer_2 + 3.0 layer_1 + layer_c + 12250000.0 particle_2 + 3500.0 particle_1 + particle_c + 10500.0 particle_layer  + err24 = 870.5
4.0 layer_2 + 2.0 layer_1 + layer_c + 12250000.0 particle_2 + 3500.0 particle_1 + particle_c + 7000.0 particle_layer  + err25 = 624.2
25.0 layer_2 + 5.0 layer_1 + layer_c + 11560000.0 particle_2 + 3400.0 particle_1 + particle_c + 17000.0 particle_layer  + err26 = 1328.1
16.0 layer_2 + 4.0 layer_1 + layer_c + 11560000.0 particle_2 + 3400.0 particle_1 + particle_c + 13600.0 particle_layer  + err27 = 1086.4
9.0 layer_2 + 3.0 layer_1 + layer_c + 11560000.0 particle_2 + 3400.0 particle_1 + particle_c + 10200.0 particle_layer  + err28 = 846.0
4.0 layer_2 + 2.0 layer_1 + layer_c + 11560000.0 particle_2 + 3400.0 particle_1 + particle_c + 6800.0 particle_layer  + err29 = 607.1
25.0 layer_2 + 5.0 layer_1 + layer_c + 10890000.0 particle_2 + 3300.0 particle_1 + particle_c + 16500.0 particle_layer  + err30 = 1288.3
16.0 layer_2 + 4.0 layer_1 + layer_c + 10890000.0 particle_2 + 3300.0 particle_1 + particle_c + 13200.0 particle_layer  + err31 = 1057.9
9.0 layer_2 + 3.0 layer_1 + layer_c + 10890000.0 particle_2 + 3300.0 particle_1 + particle_c + 9900.0 particle_layer  + err32 = 825.6
4.0 layer_2 + 2.0 layer_1 + layer_c + 10890000.0 particle_2 + 3300.0 particle_1 + particle_c + 6600.0 particle_layer  + err33 = 593.4
25.0 layer_2 + 5.0 layer_1 + layer_c + 10240000.0 particle_2 + 3200.0 particle_1 + particle_c + 16000.0 particle_layer  + err34 = 1255.5
16.0 layer_2 + 4.0 layer_1 + layer_c + 10240000.0 particle_2 + 3200.0 particle_1 + particle_c + 12800.0 particle_layer  + err35 = 1030.3
9.0 layer_2 + 3.0 layer_1 + layer_c + 10240000.0 particle_2 + 3200.0 particle_1 + particle_c + 9600.0 particle_layer  + err36 = 802.5
4.0 layer_2 + 2.0 layer_1 + layer_c + 10240000.0 particle_2 + 3200.0 particle_1 + particle_c + 6400.0 particle_layer  + err37 = 578.5
25.0 layer_2 + 5.0 layer_1 + layer_c + 9610000.0 particle_2 + 3100.0 particle_1 + particle_c + 15500.0 particle_layer  + err38 = 1222.2
16.0 layer_2 + 4.0 layer_1 + layer_c + 9610000.0 particle_2 + 3100.0 particle_1 + particle_c + 12400.0 particle_layer  + err39 = 1005.7
9.0 layer_2 + 3.0 layer_1 + layer_c + 9610000.0 particle_2 + 3100.0 particle_1 + particle_c + 9300.0 particle_layer  + err40 = 783.8
4.0 layer_2 + 2.0 layer_1 + layer_c + 9610000.0 particle_2 + 3100.0 particle_1 + particle_c + 6200.0 particle_layer  + err41 = 567.3
25.0 layer_2 + 5.0 layer_1 + layer_c + 9000000.0 particle_2 + 3000.0 particle_1 + particle_c + 15000.0 particle_layer  + err42 = 1187.8
16.0 layer_2 + 4.0 layer_1 + layer_c + 9000000.0 particle_2 + 3000.0 particle_1 + particle_c + 12000.0 particle_layer  + err43 = 975.6
9.0 layer_2 + 3.0 layer_1 + layer_c + 9000000.0 particle_2 + 3000.0 particle_1 + particle_c + 9000.0 particle_layer  + err44 = 763.4
25.0 layer_2 + 5.0 layer_1 + layer_c + 8410000.0 particle_2 + 2900.0 particle_1 + particle_c + 14500.0 particle_layer  + err45 = 1149.7
16.0 layer_2 + 4.0 layer_1 + layer_c + 8410000.0 particle_2 + 2900.0 particle_1 + particle_c + 11600.0 particle_layer  + err46 = 947.5
9.0 layer_2 + 3.0 layer_1 + layer_c + 8410000.0 particle_2 + 2900.0 particle_1 + particle_c + 8700.0 particle_layer  + err47 = 738.3
25.0 layer_2 + 5.0 layer_1 + layer_c + 7840000.0 particle_2 + 2800.0 particle_1 + particle_c + 14000.0 particle_layer  + err48 = 1113.5
16.0 layer_2 + 4.0 layer_1 + layer_c + 7840000.0 particle_2 + 2800.0 particle_1 + particle_c + 11200.0 particle_layer  + err49 = 914.0
9.0 layer_2 + 3.0 layer_1 + layer_c + 7840000.0 particle_2 + 2800.0 particle_1 + particle_c + 8400.0 particle_layer  + err50 = 717.5
25.0 layer_2 + 5.0 layer_1 + layer_c + 7290000.0 particle_2 + 2700.0 particle_1 + particle_c + 13500.0 particle_layer  + err51 = 1074.9
16.0 layer_2 + 4.0 layer_1 + layer_c + 7290000.0 particle_2 + 2700.0 particle_1 + particle_c + 10800.0 particle_layer  + err52 = 884.3
9.0 layer_2 + 3.0 layer_1 + layer_c + 7290000.0 particle_2 + 2700.0 particle_1 + particle_c + 8100.0 particle_layer  + err53 = 695.7
25.0 layer_2 + 5.0 layer_1 + layer_c + 6760000.0 particle_2 + 2600.0 particle_1 + particle_c + 13000.0 particle_layer  + err54 = 1039.7
16.0 layer_2 + 4.0 layer_1 + layer_c + 6760000.0 particle_2 + 2600.0 particle_1 + particle_c + 10400.0 particle_layer  + err55 = 855.9
9.0 layer_2 + 3.0 layer_1 + layer_c + 6760000.0 particle_2 + 2600.0 particle_1 + particle_c + 7800.0 particle_layer  + err56 = 671.5
25.0 layer_2 + 5.0 layer_1 + layer_c + 6250000.0 particle_2 + 2500.0 particle_1 + particle_c + 12500.0 particle_layer  + err57 = 1001.2
16.0 layer_2 + 4.0 layer_1 + layer_c + 6250000.0 particle_2 + 2500.0 particle_1 + particle_c + 10000.0 particle_layer  + err58 = 828.5
9.0 layer_2 + 3.0 layer_1 + layer_c + 6250000.0 particle_2 + 2500.0 particle_1 + particle_c + 7500.0 particle_layer  + err59 = 651.0
25.0 layer_2 + 5.0 layer_1 + layer_c + 5760000.0 particle_2 + 2400.0 particle_1 + particle_c + 12000.0 particle_layer  + err60 = 968.8
16.0 layer_2 + 4.0 layer_1 + layer_c + 5760000.0 particle_2 + 2400.0 particle_1 + particle_c + 9600.0 particle_layer  + err61 = 798.5
9.0 layer_2 + 3.0 layer_1 + layer_c + 5760000.0 particle_2 + 2400.0 particle_1 + particle_c + 7200.0 particle_layer  + err62 = 629.4
25.0 layer_2 + 5.0 layer_1 + layer_c + 5290000.0 particle_2 + 2300.0 particle_1 + particle_c + 11500.0 particle_layer  + err63 = 928.4
16.0 layer_2 + 4.0 layer_1 + layer_c + 5290000.0 particle_2 + 2300.0 particle_1 + particle_c + 9200.0 particle_layer  + err64 = 767.5
9.0 layer_2 + 3.0 layer_1 + layer_c + 5290000.0 particle_2 + 2300.0 particle_1 + particle_c + 6900.0 particle_layer  + err65 = 608.5
25.0 layer_2 + 5.0 layer_1 + layer_c + 4840000.0 particle_2 + 2200.0 particle_1 + particle_c + 11000.0 particle_layer  + err66 = 896.3
16.0 layer_2 + 4.0 layer_1 + layer_c + 4840000.0 particle_2 + 2200.0 particle_1 + particle_c + 8800.0 particle_layer  + err67 = 741.4
9.0 layer_2 + 3.0 layer_1 + layer_c + 4840000.0 particle_2 + 2200.0 particle_1 + particle_c + 6600.0 particle_layer  + err68 = 585.3
25.0 layer_2 + 5.0 layer_1 + layer_c + 4410000.0 particle_2 + 2100.0 particle_1 + particle_c + 10500.0 particle_layer  + err69 = 861.1
16.0 layer_2 + 4.0 layer_1 + layer_c + 4410000.0 particle_2 + 2100.0 particle_1 + particle_c + 8400.0 particle_layer  + err70 = 713.3
9.0 layer_2 + 3.0 layer_1 + layer_c + 4410000.0 particle_2 + 2100.0 particle_1 + particle_c + 6300.0 particle_layer  + err71 = 563.5
25.0 layer_2 + 5.0 layer_1 + layer_c + 4000000.0 particle_2 + 2000.0 particle_1 + particle_c + 10000.0 particle_layer  + err72 = 822.6
16.0 layer_2 + 4.0 layer_1 + layer_c + 4000000.0 particle_2 + 2000.0 particle_1 + particle_c + 8000.0 particle_layer  + err73 = 682.5
25.0 layer_2 + 5.0 layer_1 + layer_c + 3610000.0 particle_2 + 1900.0 particle_1 + particle_c + 9500.0 particle_layer  + err74 = 789.4
16.0 layer_2 + 4.0 layer_1 + layer_c + 3610000.0 particle_2 + 1900.0 particle_1 + particle_c + 7600.0 particle_layer  + err75 = 653.6
25.0 layer_2 + 5.0 layer_1 + layer_c + 3240000.0 particle_2 + 1800.0 particle_1 + particle_c + 9000.0 particle_layer  + err76 = 749.6
16.0 layer_2 + 4.0 layer_1 + layer_c + 3240000.0 particle_2 + 1800.0 particle_1 + particle_c + 7200.0 particle_layer  + err77 = 626.1
25.0 layer_2 + 5.0 layer_1 + layer_c + 2890000.0 particle_2 + 1700.0 particle_1 + particle_c + 8500.0 particle_layer  + err78 = 715.9
16.0 layer_2 + 4.0 layer_1 + layer_c + 2890000.0 particle_2 + 1700.0 particle_1 + particle_c + 6800.0 particle_layer  + err79 = 595.7
25.0 layer_2 + 5.0 layer_1 + layer_c + 2560000.0 particle_2 + 1600.0 particle_1 + particle_c + 8000.0 particle_layer  + err80 = 679.8
16.0 layer_2 + 4.0 layer_1 + layer_c + 2560000.0 particle_2 + 1600.0 particle_1 + particle_c + 6400.0 particle_layer  + err81 = 566.9
25.0 layer_2 + 5.0 layer_1 + layer_c + 2250000.0 particle_2 + 1500.0 particle_1 + particle_c + 7500.0 particle_layer  + err82 = 642.9
16.0 layer_2 + 4.0 layer_1 + layer_c + 2250000.0 particle_2 + 1500.0 particle_1 + particle_c + 6000.0 particle_layer  + err83 = 540.8
25.0 layer_2 + 5.0 layer_1 + layer_c + 1960000.0 particle_2 + 1400.0 particle_1 + particle_c + 7000.0 particle_layer  + err84 = 608.2
16.0 layer_2 + 4.0 layer_1 + layer_c + 1960000.0 particle_2 + 1400.0 particle_1 + particle_c + 5600.0 particle_layer  + err85 = 510.7
25.0 layer_2 + 5.0 layer_1 + layer_c + 1690000.0 particle_2 + 1300.0 particle_1 + particle_c + 6500.0 particle_layer  + err86 = 573.2
16.0 layer_2 + 4.0 layer_1 + layer_c + 1690000.0 particle_2 + 1300.0 particle_1 + particle_c + 5200.0 particle_layer  + err87 = 481.2
25.0 layer_2 + 5.0 layer_1 + layer_c + 1440000.0 particle_2 + 1200.0 particle_1 + particle_c + 6000.0 particle_layer  + err88 = 539.4
16.0 layer_2 + 4.0 layer_1 + layer_c + 1440000.0 particle_2 + 1200.0 particle_1 + particle_c + 4800.0 particle_layer  + err89 = 452.9
25.0 layer_2 + 5.0 layer_1 + layer_c + 1210000.0 particle_2 + 1100.0 particle_1 + particle_c + 5500.0 particle_layer  + err90 = 501.3
16.0 layer_2 + 4.0 layer_1 + layer_c + 1210000.0 particle_2 + 1100.0 particle_1 + particle_c + 4400.0 particle_layer  + err91 = 423.1
25.0 layer_2 + 5.0 layer_1 + layer_c + 1000000.0 particle_2 + 1000.0 particle_1 + particle_c + 5000.0 particle_layer  + err92 = 463.7
16.0 layer_2 + 4.0 layer_1 + layer_c + 1000000.0 particle_2 + 1000.0 particle_1 + particle_c + 4000.0 particle_layer  + err93 = 394.7
25.0 layer_2 + 5.0 layer_1 + layer_c + 810000.0 particle_2 + 900.0 particle_1 + particle_c + 4500.0 particle_layer  + err94 = 429.1
16.0 layer_2 + 4.0 layer_1 + layer_c + 810000.0 particle_2 + 900.0 particle_1 + particle_c + 3600.0 particle_layer  + err95 = 366.4
25.0 layer_2 + 5.0 layer_1 + layer_c + 640000.0 particle_2 + 800.0 particle_1 + particle_c + 4000.0 particle_layer  + err96 = 394.2
16.0 layer_2 + 4.0 layer_1 + layer_c + 640000.0 particle_2 + 800.0 particle_1 + particle_c + 3200.0 particle_layer  + err97 = 338.5
25.0 layer_2 + 5.0 layer_1 + layer_c + 490000.0 particle_2 + 700.0 particle_1 + particle_c + 3500.0 particle_layer  + err98 = 358.8
16.0 layer_2 + 4.0 layer_1 + layer_c + 490000.0 particle_2 + 700.0 particle_1 + particle_c + 2800.0 particle_layer  + err99 = 309.3
25.0 layer_2 + 5.0 layer_1 + layer_c + 360000.0 particle_2 + 600.0 particle_1 + particle_c + 3000.0 particle_layer  + err100 = 322.7
16.0 layer_2 + 4.0 layer_1 + layer_c + 360000.0 particle_2 + 600.0 particle_1 + particle_c + 2400.0 particle_layer  + err101 = 280.8
25.0 layer_2 + 5.0 layer_1 + layer_c + 250000.0 particle_2 + 500.0 particle_1 + particle_c + 2500.0 particle_layer  + err102 = 288.3
16.0 layer_2 + 4.0 layer_1 + layer_c + 250000.0 particle_2 + 500.0 particle_1 + particle_c + 2000.0 particle_layer  + err103 = 252.2
25.0 layer_2 + 5.0 layer_1 + layer_c + 160000.0 particle_2 + 400.0 particle_1 + particle_c + 2000.0 particle_layer  + err104 = 250.7
16.0 layer_2 + 4.0 layer_1 + layer_c + 160000.0 particle_2 + 400.0 particle_1 + particle_c + 1600.0 particle_layer  + err105 = 223.4
25.0 layer_2 + 5.0 layer_1 + layer_c + 90000.0 particle_2 + 300.0 particle_1 + particle_c + 1500.0 particle_layer  + err106 = 215.7
16.0 layer_2 + 4.0 layer_1 + layer_c + 90000.0 particle_2 + 300.0 particle_1 + particle_c + 1200.0 particle_layer  + err107 = 194.4
25.0 layer_2 + 5.0 layer_1 + layer_c + 40000.0 particle_2 + 200.0 particle_1 + particle_c + 1000.0 particle_layer  + err108 = 180.2
16.0 layer_2 + 4.0 layer_1 + layer_c + 40000.0 particle_2 + 200.0 particle_1 + particle_c + 800.0 particle_layer  + err109 = 166.6
25.0 layer_2 + 5.0 layer_1 + layer_c + 10000.0 particle_2 + 100.0 particle_1 + particle_c + 500.0 particle_layer  + err110 = 144.5
16.0 layer_2 + 4.0 layer_1 + layer_c + 10000.0 particle_2 + 100.0 particle_1 + particle_c + 400.0 particle_layer  + err111 = 138.9
